s td 458 2 561
b 1 1 450
b 2 2
b 3 3 431
b 4 430 431
b 5 431
b 6 4 172
b 7 172 173
b 8 5 162
b 9 170 171
b 10 5 171
b 11 5 276
b 12 276 277
b 13 6
b 14 240 241
b 15 7 240
b 16 7 387
b 17 8 306
b 18 9
b 19 10
b 20 11
b 21 12
b 22 13 251
b 23 280 281
b 24 13 280
b 25 13 462
b 26 14
b 27 15 128
b 28 128 129
b 29 16 129
b 30 16 163
b 31 17 362
b 32 17 418
b 33 418 419
b 34 18 370
b 35 19 268
b 36 20 269
b 37 21
b 38 242 243
b 39 22 243
b 40 22 483
b 41 482 483
b 42 483
b 43 23
b 44 24 465
b 45 25 473
b 46 26 509
b 47 26 542
b 48 26 559
b 49 38 294
b 50 27 397
b 51 27 300
b 52 300 301
b 53 38 301
b 54 38 561
b 55 28 152
b 56 28 312
b 57 312 313
b 58 29 270
b 59 30 285
b 60 30 340
b 61 31 244
b 62 31 341
b 63 31 378
b 64 32
b 65 33 375
b 66 374 375
b 67 375
b 68 34 252
b 69 35 262
b 70 36 154
b 71 36 556
b 72 37 560
b 73 39 342
b 74 39 514
b 75 40 513
b 76 41
b 77 42 254
b 78 42 379
b 79 43
b 80 322 323
b 81 44 323
b 82 44 358
b 83 358 359
b 84 45 192
b 85 192 193
b 86 57 181
b 87 57 391
b 88 380 381
b 89 46 381
b 90 46 390
b 91 390 391
b 92 391
b 93 47 155
b 94 184 185
b 95 48 185
b 96 48 523
b 97 49 454
b 98 130 131
b 99 50 130
b 100 50 257
b 101 50 474
b 102 51 145
b 103 51 174
b 104 51 432
b 105 52 394
b 106 52 538
b 107 53
b 108 55 335
b 109 178 179
b 110 54 179
b 111 54 334
b 112 334 335
b 113 335
b 114 56 180
b 115 58 167
b 116 58 274
b 117 59
b 118 60 302
b 119 61 202
b 120 62
b 121 63 297
b 122 296 297
b 123 297
b 124 64
b 125 65 435
b 126 434 435
b 127 435
b 128 66 209
b 129 67 411
b 130 272 273
b 131 68 272
b 132 68 525
b 133 524 525
b 134 525
b 135 69
b 136 70 406
b 137 71 529
b 138 528 529
b 139 529
b 140 72 246
b 141 72 384
b 142 73 205
b 143 73 550
b 144 73 554
b 145 74
b 146 75 503
b 147 76 532
b 148 77 361
b 149 77 365
b 150 78
b 151 79 221
b 152 79 248
b 153 248 249
b 154 80
b 155 81 456
b 156 82 169
b 157 83 126
b 158 83 308
b 159 84
b 160 140 141
b 161 85 141
b 162 85 304
b 163 86 232
b 164 87 216
b 165 88 518
b 166 99 402
b 167 99 519
b 168 518 519
b 169 519
b 170 89
b 171 90
b 172 91 481
b 173 92 338
b 174 92 457
b 175 92 479
b 176 478 479
b 177 479
b 178 93 495
b 179 494 495
b 180 495
b 181 94 124
b 182 94 127
b 183 95 125
b 184 96 320
b 185 97 321
b 186 97 366
b 187 366 367
b 188 98 210
b 189 98 266
b 190 98 497
b 191 100 442
b 192 101 222
b 193 102 316
b 194 103 315
b 195 103 318
b 196 350 351
b 197 104 351
b 198 104 469
b 199 468 469
b 200 469
b 201 328 329
b 202 105 329
b 203 105 376
b 204 106 470
b 205 106 507
b 206 107
b 207 108 393
b 208 108 405
b 209 108 540
b 210 540 541
b 211 109 267
b 212 110 352
b 213 110 403
b 214 111 190
b 215 111 443
b 216 112 223
b 217 112 438
b 218 114 319
b 219 114 227
b 220 226 227
b 221 113 226
b 222 113 439
b 223 115 477
b 224 476 477
b 225 477
b 226 116 377
b 227 117
b 228 118
b 229 119 135
b 230 120 409
b 231 120 427
b 232 121
b 233 122
b 234 123
b 235 132
b 236 133
b 237 134
b 238 136
b 239 137
b 240 138 139
b 241 142 143
b 242 144
b 243 146
b 244 147
b 245 148
b 246 149
b 247 150
b 248 151
b 249 153
b 250 156
b 251 157
b 252 158 159
b 253 160
b 254 161
b 255 164 165
b 256 166
b 257 168
b 258 175
b 259 176 177
b 260 182
b 261 183
b 262 186
b 263 187
b 264 188
b 265 189
b 266 191
b 267 194 195
b 268 196
b 269 197
b 270 198
b 271 199
b 272 200
b 273 201
b 274 203
b 275 204
b 276 206
b 277 207
b 278 208
b 279 211
b 280 212
b 281 213
b 282 214
b 283 215
b 284 217
b 285 218 219
b 286 220
b 287 224
b 288 225
b 289 228
b 290 229
b 291 230
b 292 231
b 293 233
b 294 234
b 295 235
b 296 236 237
b 297 238 239
b 298 245
b 299 247
b 300 250
b 301 253
b 302 255
b 303 256
b 304 258 259
b 305 260
b 306 261
b 307 263
b 308 264
b 309 265
b 310 271
b 311 275
b 312 278
b 313 279
b 314 282 283
b 315 284
b 316 286
b 317 287
b 318 288
b 319 289
b 320 290 291
b 321 292
b 322 293
b 323 295
b 324 298 299
b 325 303
b 326 305
b 327 307
b 328 309
b 329 310
b 330 311
b 331 314
b 332 317
b 333 324
b 334 325
b 335 326
b 336 327
b 337 330
b 338 331
b 339 332
b 340 333
b 341 336 337
b 342 339
b 343 343
b 344 344
b 345 345
b 346 346 347
b 347 348
b 348 349
b 349 353
b 350 354
b 351 355
b 352 356
b 353 357
b 354 360
b 355 363
b 356 364
b 357 368
b 358 369
b 359 371
b 360 372 373
b 361 382
b 362 383
b 363 385
b 364 386
b 365 388
b 366 389
b 367 392
b 368 395
b 369 396
b 370 398
b 371 399
b 372 400
b 373 401
b 374 404
b 375 407
b 376 408
b 377 410
b 378 412
b 379 413
b 380 414
b 381 415
b 382 416
b 383 417
b 384 420 421
b 385 422
b 386 423
b 387 424 425
b 388 426
b 389 428
b 390 429
b 391 433
b 392 436
b 393 437
b 394 440 441
b 395 444
b 396 445
b 397 446
b 398 447
b 399 448 449
b 400 451
b 401 452
b 402 453
b 403 455
b 404 458 459
b 405 460
b 406 461
b 407 463
b 408 464
b 409 466 467
b 410 471
b 411 472
b 412 475
b 413 480
b 414 484
b 415 485
b 416 486
b 417 487
b 418 488 489
b 419 490
b 420 491
b 421 492
b 422 493
b 423 496
b 424 498 499
b 425 500
b 426 501
b 427 502
b 428 504 505
b 429 506
b 430 508
b 431 510
b 432 511
b 433 512
b 434 515
b 435 516 517
b 436 520
b 437 521
b 438 522
b 439 526
b 440 527
b 441 530 531
b 442 533
b 443 534
b 444 535
b 445 536 537
b 446 539
b 447 543
b 448 544
b 449 545
b 450 546
b 451 547
b 452 548
b 453 549
b 454 551
b 455 552 553
b 456 555
b 457 557
b 458 558
1 2
1 3
1 6
1 8
1 13
1 14
1 17
1 18
1 19
1 20
1 21
1 22
1 26
1 27
1 31
1 34
1 35
1 36
1 37
1 38
1 43
1 44
1 45
1 46
1 49
1 55
1 58
1 59
1 61
1 64
1 65
1 68
1 69
1 70
1 72
1 73
1 75
1 76
1 77
1 79
1 80
1 84
1 86
1 93
1 94
1 97
1 98
1 102
1 105
1 107
1 108
1 114
1 115
1 117
1 118
1 119
1 120
1 121
1 124
1 125
1 128
1 129
1 130
1 135
1 136
1 137
1 140
1 142
1 145
1 146
1 147
1 148
1 150
1 151
1 154
1 155
1 156
1 157
1 159
1 160
1 163
1 164
1 165
1 170
1 171
1 172
1 173
1 178
1 181
1 183
1 184
1 185
1 188
1 191
1 192
1 193
1 194
1 196
1 201
1 204
1 206
1 207
1 211
1 212
1 214
1 216
1 218
1 223
1 226
1 227
1 228
1 229
1 230
1 232
1 233
1 234
1 235
1 236
1 237
1 238
1 239
1 240
1 241
1 242
1 243
1 244
1 245
1 246
1 247
1 248
1 249
1 250
1 251
1 252
1 253
1 254
1 255
1 256
1 257
1 258
1 259
1 260
1 261
1 262
1 263
1 264
1 265
1 266
1 267
1 268
1 269
1 270
1 271
1 272
1 273
1 274
1 275
1 276
1 277
1 278
1 279
1 280
1 281
1 282
1 283
1 284
1 285
1 286
1 287
1 288
1 289
1 290
1 291
1 292
1 293
1 294
1 295
1 296
1 297
1 298
1 299
1 300
1 301
1 302
1 303
1 304
1 305
1 306
1 307
1 308
1 309
1 310
1 311
1 312
1 313
1 314
1 315
1 316
1 317
1 318
1 319
1 320
1 321
1 322
1 323
1 324
1 325
1 326
1 327
1 328
1 329
1 330
1 331
1 332
1 333
1 334
1 335
1 336
1 337
1 338
1 339
1 340
1 341
1 342
1 343
1 344
1 345
1 346
1 347
1 348
1 349
1 350
1 351
1 352
1 353
1 354
1 355
1 356
1 357
1 358
1 359
1 360
1 361
1 362
1 363
1 364
1 365
1 366
1 367
1 368
1 369
1 370
1 371
1 372
1 373
1 374
1 375
1 376
1 377
1 378
1 379
1 380
1 381
1 382
1 383
1 384
1 385
1 386
1 387
1 388
1 389
1 390
1 391
1 392
1 393
1 394
1 395
1 396
1 397
1 398
1 399
1 400
1 401
1 402
1 403
1 404
1 405
1 406
1 407
1 408
1 409
1 410
1 411
1 412
1 413
1 414
1 415
1 416
1 417
1 418
1 419
1 420
1 421
1 422
1 423
1 424
1 425
1 426
1 427
1 428
1 429
1 430
1 431
1 432
1 433
1 434
1 435
1 436
1 437
1 438
1 439
1 440
1 441
1 442
1 443
1 444
1 445
1 446
1 447
1 448
1 449
1 450
1 451
1 452
1 453
1 454
1 455
1 456
1 457
1 458
3 5
4 5
6 7
8 11
9 10
10 11
11 12
14 15
15 16
22 25
23 24
24 25
27 28
28 29
29 30
31 32
32 33
38 39
39 40
40 42
41 42
46 48
47 48
49 54
50 51
51 52
52 53
53 54
55 56
56 57
59 60
61 63
62 63
65 67
66 67
70 71
73 74
77 78
80 81
81 82
82 83
84 85
86 87
87 92
88 89
89 90
90 91
91 92
94 95
95 96
98 99
99 101
100 101
102 104
103 104
105 106
108 113
109 110
110 111
111 112
112 113
115 116
121 123
122 123
125 127
126 127
130 131
131 132
132 134
133 134
137 139
138 139
140 141
142 144
143 144
148 149
151 152
152 153
157 158
160 161
161 162
165 168
166 167
167 169
168 169
173 175
174 175
175 177
176 177
178 180
179 180
181 182
185 186
186 187
188 190
189 190
194 195
196 197
197 198
198 200
199 200
201 202
202 203
204 205
207 209
208 209
209 210
212 213
214 215
216 217
218 219
219 220
220 221
221 222
223 225
224 225
230 231
